NAME: I10329-n48-k5
COMMENT : (Fake et al, No of trucks: 5, Optimal value: )
TYPE : CVRP
DIMENSION : 48
EDGE_WEIGHT_TYPE : EUC_2D
CAPACITY : 24
NODE_COORD_SECTION
1 148 919
2 911 231
3 8 262
4 53 509
5 947 276
6 658 778
7 680 537
8 961 664
9 288 704
10 421 580
11 175 916
12 773 53
13 645 187
14 368 593
15 238 153
16 7 950
17 25 220
18 453 106
19 131 83
20 314 614
21 534 85
22 197 96
23 884 541
24 818 67
25 926 917
26 999 190
27 318 140
28 563 598
29 923 357
30 659 497
31 656 534
32 55 439
33 880 701
34 24 698
35 579 833
36 962 179
37 302 787
38 501 906
39 395 69
40 812 673
41 248 680
42 866 798
43 434 4
44 147 137
45 472 198
46 204 495
47 406 450
48 532 205
DEMAND_SECTION
1 0
2 2
3 2
4 2
5 3
6 3
7 2
8 1
9 2
10 3
11 2
12 1
13 2
14 3
15 3
16 2
17 2
18 1
19 3
20 2
21 2
22 3
23 2
24 3
25 1
26 2
27 3
28 3
29 2
30 3
31 3
32 1
33 2
34 1
35 2
36 3
37 1
38 1
39 3
40 2
41 1
42 1
43 3
44 2
45 2
46 1
47 1
48 1
DEPOT_SECTION
 1
 -1
 EOF 